AES/1_5_4/ssaes_r1-20_c5_rw1_e4_f0_k1-20_aes_1base_box_aes_mc_bidirectional/ExperimentMinisat_r13_k5cnf_2011-10-29-201521/Result
WARNING: for repeatability, setting FPU to use double precision
============================[ Problem Statistics ]=============================
|                                                                             |
|  Number of variables:          1204                                         |
|  Number of clauses:            5306                                         |
|  Parse time:                   0.00 s                                       |
|  Eliminated clauses:           0.01 Mb                                      |
|  Simplification time:          0.00 s                                       |
|                                                                             |
=============================[ Search Statistics ]==============================
| Conflicts  |          ORIGINAL         |          LEARNT          | Progress |
|            |    Vars  Clauses Literals |    Limit  Clauses Lit/Cl |          |
================================================================================
|        100 |     832     4146    13568 |     1520      100     22 |  7.641 % |
|        250 |     832     4146    13568 |     1672      250     26 |  7.641 % |
|        475 |     832     4146    13568 |     1839      475     25 |  7.641 % |
|        812 |     832     4146    13568 |     2023      812     26 |  7.641 % |
|       1318 |     832     4146    13568 |     2225     1318     26 |  7.641 % |
|       2077 |     832     4146    13568 |     2448     2077     26 |  7.641 % |
|       3216 |     832     4146    13568 |     2693     1929     20 |  7.641 % |
|       4924 |     832     4146    13568 |     2962     2214     22 |  7.641 % |
|       7486 |     832     4146    13568 |     3258     1658     16 |  7.641 % |
|      11330 |     832     4146    13568 |     3584     2111     18 |  7.641 % |
|      17096 |     832     4146    13568 |     3943     2296     18 |  7.641 % |
|      25745 |     832     4146    13568 |     4337     2789     19 |  7.641 % |
|      38719 |     832     4146    13568 |     4771     2359     16 |  7.641 % |
|      58180 |     832     4146    13568 |     5248     4668     20 |  7.641 % |
|      87372 |     832     4146    13568 |     5772     4240     20 |  7.641 % |
|     131161 |     832     4146    13568 |     6350     3723     18 |  7.641 % |
|     196845 |     832     4146    13568 |     6985     4556     17 |  7.641 % |
|     295371 |     832     4146    13568 |     7683     6978     18 |  7.641 % |
|     443160 |     832     4146    13568 |     8452     6255     17 |  7.641 % |
|     664843 |     832     4146    13568 |     9297     4758     16 |  7.641 % |
|     997368 |     832     4146    13568 |    10227     7290     15 |  7.641 % |
===============================================================================
restarts              : 2047
conflicts             : 1078811        (11924 /sec)
decisions             : 1176823        (0.00 % random) (13008 /sec)
propagations          : 421599027      (4660033 /sec)
conflict literals     : 23591559       (52.76 % deleted)
Memory used           : 9.00 MB
CPU time              : 90.4712 s

SATISFIABLE
